8383505787247026988506,8,1,2,03,2,1,2,012,7,1,2,05,14,1,2,03,15,1,2,08,13,1,2,010,12,1,2,06,3,1,2,08,15,1,2,06,7,1,2,08,5,1,2,07,12,1,2,010,4,1,2,04,7,1,2,07,11,1,2,011,9,1,2,011,1,1,2,09,1,1,2,09,2,1,2,012,13,1,2,09,6,1,2,010,12,1,2,09,2,1,2,07,14,1,2,05,11,1,2,06,15,1,2,07,1,1,2,015,3,1,2,08,9,1,2,012,13,1,2,05,6,1,2,010,5,1,2,08,6,1,2,011,15,1,2,02,13,1,2,04,1,1,2,08,4,1,2,012,5,1,2,02,10,1,2,03,9,1,2,07,6,1,2,09,10,1,2,013,3,1,2,06,8,1,2,01,11,1,2,011,3,1,2,010,6,1,2,07,14,1,2,07,4,1,2,02,15,1,2,0